h=9;
w=9;
n=6;
b=[|3,6,0,-2,-2,-1,5,2,0|1,5,-2,-2,2,-2,3,6,0|2,0,0,0,0,0,-2,3,6|4,-2,3,1,0,0,-2,0,0|0,-2,5,-1,1,0,4,0,-1|0,4,-1,6,0,2,-2,0,0|0,0,2,0,5,-2,0,0,0|0,0,-2,3,-1,-2,2,0,-2|0,0,0,-2,0,3,1,4,-1|];
